(set-info :source |printed by MathSAT|)
(declare-fun ast.next () Bool)
(declare-fun call__main_.retard1.next () Bool)
(declare-fun call__main_.diff1 () Int)
(declare-fun call_Sofar.Sofar () Bool)
(declare-fun call__main_.call_controleur2.flby2.next () Bool)
(declare-fun call__main_.call_hypothese2.flby.next () Bool)
(declare-fun call__main_.call_hypothese.flby.next () Bool)
(declare-fun call__main_.call_controleur.ite.next () Bool)
(declare-fun nS () Int)
(declare-fun call__main_.ite.next () Int)
(declare-fun call_Sofar.flby () Bool)
(declare-fun call__main_.call_controleur.retard () Bool)
(declare-fun call__main_.diff0.next () Int)
(declare-fun call__main_.call_hypothese.c.next () Int)
(declare-fun call__main_.nB1.next () Int)
(declare-fun call__main_._H1_.next () Bool)
(declare-fun call__main_.call_hypothese.ite4.next () Int)
(declare-fun call__main_.call_hypothese2.ite4.next () Int)
(declare-fun call__main_.call_hypothese.flby () Bool)
(declare-fun avance0 () Bool)
(declare-fun call__main_.ite3.next () Int)
(declare-fun call__main_.nS () Int)
(declare-fun call__main_.nB0.next () Int)
(declare-fun nB0 () Int)
(declare-fun call__main_.call_hypothese2.ite3.next () Int)
(declare-fun ast () Bool)
(declare-fun call__main_.call_hypothese.ok.next () Bool)
(declare-fun call__main_._H1_ () Bool)
(declare-fun call__main_.retard0 () Bool)
(declare-fun call__main_.call_controleur2.flby () Bool)
(declare-fun call__main_.ast () Bool)
(declare-fun flby.next () Bool)
(declare-fun diff1.next () Int)
(declare-fun retard1 () Bool)
(declare-fun diff0.next () Int)
(declare-fun call__main_.call_controleur.avance.next () Bool)
(declare-fun retard0.next () Bool)
(declare-fun call__main_.avance1.next () Bool)
(declare-fun call__main_.avance0 () Bool)
(declare-fun call__main_.call_controleur.diff.next () Int)
(declare-fun call__main_.call_hypothese2.c () Int)
(declare-fun nB0.next () Int)
(declare-fun call__main_.ast.next () Bool)
(declare-fun call__main_.call_controleur2.ite.next () Bool)
(declare-fun call__main_.flby.next () Int)
(declare-fun call__main_.call_controleur2.flby2 () Bool)
(declare-fun nB1.next () Int)
(declare-fun call__main_.call_controleur.flby () Bool)
(declare-fun avance0.next () Bool)
(declare-fun call__main_.retard0.next () Bool)
(declare-fun diff0 () Int)
(declare-fun call__main_.call_hypothese2.ite2.next () Bool)
(declare-fun call__main_.nS.next () Int)
(declare-fun call__main_.flby2.next () Int)
(declare-fun call__main_.call_controleur.diff () Int)
(declare-fun call__main_.call_hypothese.ite3.next () Int)
(declare-fun nS.next () Int)
(declare-fun call__main_.flby () Int)
(declare-fun call__main_.call_hypothese.flby2.next () Int)
(declare-fun param__S_.next () Bool)
(declare-fun call__main_.call_hypothese.c () Int)
(declare-fun call_Sofar.flby.next () Bool)
(declare-fun call__main_._H0_.next () Bool)
(declare-fun retard0 () Bool)
(declare-fun call__main_.call_hypothese2.ite.next () Bool)
(declare-fun avance1 () Bool)
(declare-fun call__main_.diff0 () Int)
(declare-fun call__main_.call_controleur2.retard () Bool)
(declare-fun call__main_.call_hypothese2.ok.next () Bool)
(declare-fun flby () Bool)
(declare-fun call__main_.call_hypothese.ite.next () Bool)
(declare-fun call__main_.flby2 () Int)
(declare-fun param__B0_.next () Bool)
(declare-fun call__main_.call_hypothese.ok () Bool)
(declare-fun nB1 () Int)
(declare-fun call__main_.nB0 () Int)
(declare-fun call__main_.call_controleur2.diff () Int)
(declare-fun param__B1_.next () Bool)
(declare-fun call__main_.call_controleur2.retard.next () Bool)
(declare-fun call__main_.call_hypothese2.flby () Bool)
(declare-fun call__main_.flby3 () Int)
(declare-fun call__main_.call_hypothese.flby2 () Int)
(declare-fun call__main_.avance1 () Bool)
(declare-fun call__main_.call_hypothese.ite2.next () Bool)
(declare-fun call__main_.call_controleur.ite2.next () Bool)
(declare-fun call__main_.call_controleur.flby2 () Bool)
(declare-fun call__main_.call_hypothese2.flby2.next () Int)
(declare-fun call_Sofar.Sofar.next () Bool)
(declare-fun _OK_.next () Bool)
(declare-fun call__main_.diff1.next () Int)
(declare-fun call__main_.avance0.next () Bool)
(declare-fun call__main_.flby3.next () Int)
(declare-fun call__main_.call_hypothese2.c.next () Int)
(declare-fun avance1.next () Bool)
(declare-fun retard1.next () Bool)
(declare-fun call__main_.call_controleur.retard.next () Bool)
(declare-fun call__main_.call_controleur.avance () Bool)
(declare-fun _OK_ () Bool)
(declare-fun call__main_.nB1 () Int)
(declare-fun diff1 () Int)
(declare-fun call__main_.call_hypothese2.flby2 () Int)
(declare-fun call__main_.call_controleur.flby.next () Bool)
(declare-fun call__main_.retard1 () Bool)
(declare-fun call__main_.call_controleur2.flby.next () Bool)
(declare-fun call__main_.call_controleur2.ite2.next () Bool)
(declare-fun call__main_.call_controleur2.avance () Bool)
(declare-fun call__main_.call_hypothese2.ok () Bool)
(declare-fun call__main_.call_controleur2.diff.next () Int)
(declare-fun call__main_.ite2.next () Int)
(declare-fun call__main_.call_controleur.flby2.next () Bool)
(declare-fun call__main_.call_controleur2.avance.next () Bool)
(declare-fun call__main_._H0_ () Bool)
(define-fun .def_918 () Bool (= call_Sofar.flby.next call_Sofar.Sofar.next))
(define-fun .def_915 () Bool (= call__main_.call_controleur2.flby2.next call__main_.call_controleur2.retard.next))
(define-fun .def_913 () Bool (= call__main_.call_controleur2.flby.next call__main_.call_controleur2.avance.next))
(define-fun .def_906 () Int (* (- 1) call__main_.nB1.next))
(define-fun .def_909 () Int (+ .def_906 call__main_.nS.next))
(define-fun .def_910 () Int (+ call__main_.call_controleur2.diff.next .def_909))
(define-fun .def_911 () Bool (= .def_910 0))
(define-fun .def_904 () Bool (= call__main_.call_controleur.flby2.next call__main_.call_controleur.retard.next))
(define-fun .def_902 () Bool (= call__main_.call_controleur.flby.next call__main_.call_controleur.avance.next))
(define-fun .def_895 () Int (* (- 1) call__main_.nB0.next))
(define-fun .def_898 () Int (+ .def_895 call__main_.nS.next))
(define-fun .def_899 () Int (+ call__main_.call_controleur.diff.next .def_898))
(define-fun .def_900 () Bool (= .def_899 0))
(define-fun .def_893 () Bool (= call__main_.call_hypothese2.flby2.next call__main_.call_hypothese2.c.next))
(define-fun .def_890 () Bool (= call__main_.call_hypothese2.flby.next call__main_.call_hypothese2.ok.next))
(define-fun .def_888 () Bool (= call__main_.call_hypothese.flby2.next call__main_.call_hypothese.c.next))
(define-fun .def_885 () Bool (= call__main_.call_hypothese.flby.next call__main_.call_hypothese.ok.next))
(define-fun .def_883 () Bool (= call__main_._H1_.next call__main_.call_hypothese2.ok.next))
(define-fun .def_880 () Bool (= call__main_._H0_.next call__main_.call_hypothese.ok.next))
(define-fun .def_877 () Bool (= call__main_.retard1.next call__main_.call_controleur2.retard.next))
(define-fun .def_874 () Bool (= call__main_.retard0.next call__main_.call_controleur.retard.next))
(define-fun .def_871 () Bool (= call__main_.avance1.next call__main_.call_controleur2.avance.next))
(define-fun .def_868 () Bool (= call__main_.avance0.next call__main_.call_controleur.avance.next))
(define-fun .def_865 () Bool (= call__main_.call_controleur2.diff.next call__main_.diff1.next))
(define-fun .def_863 () Bool (= call__main_.call_controleur.diff.next call__main_.diff0.next))
(define-fun .def_861 () Bool (= call__main_.flby3.next call__main_.nS.next))
(define-fun .def_859 () Bool (= call__main_.flby2.next call__main_.nB1.next))
(define-fun .def_857 () Bool (= call__main_.flby.next call__main_.nB0.next))
(define-fun .def_854 () Bool (and call__main_._H0_.next call__main_._H1_.next))
(define-fun .def_855 () Bool (= call__main_.ast.next .def_854))
(define-fun .def_850 () Bool (= ast.next call__main_.ast.next))
(define-fun .def_847 () Bool (= retard1.next call__main_.retard1.next))
(define-fun .def_843 () Bool (= retard0.next call__main_.retard0.next))
(define-fun .def_839 () Bool (= call__main_.avance1.next avance1.next))
(define-fun .def_836 () Bool (= call__main_.avance0.next avance0.next))
(define-fun .def_833 () Bool (= diff1.next call__main_.diff1.next))
(define-fun .def_829 () Bool (= diff0.next call__main_.diff0.next))
(define-fun .def_825 () Bool (= nS.next call__main_.nS.next))
(define-fun .def_821 () Bool (= nB1.next call__main_.nB1.next))
(define-fun .def_817 () Bool (= nB0.next call__main_.nB0.next))
(define-fun .def_814 () Bool (= flby.next _OK_.next))
(define-fun .def_818 () Bool (and .def_814 .def_817))
(define-fun .def_822 () Bool (and .def_818 .def_821))
(define-fun .def_826 () Bool (and .def_822 .def_825))
(define-fun .def_830 () Bool (and .def_826 .def_829))
(define-fun .def_834 () Bool (and .def_830 .def_833))
(define-fun .def_837 () Bool (and .def_834 .def_836))
(define-fun .def_840 () Bool (and .def_837 .def_839))
(define-fun .def_844 () Bool (and .def_840 .def_843))
(define-fun .def_848 () Bool (and .def_844 .def_847))
(define-fun .def_851 () Bool (and .def_848 .def_850))
(define-fun .def_856 () Bool (and .def_851 .def_855))
(define-fun .def_858 () Bool (and .def_856 .def_857))
(define-fun .def_860 () Bool (and .def_858 .def_859))
(define-fun .def_862 () Bool (and .def_860 .def_861))
(define-fun .def_864 () Bool (and .def_862 .def_863))
(define-fun .def_866 () Bool (and .def_864 .def_865))
(define-fun .def_869 () Bool (and .def_866 .def_868))
(define-fun .def_872 () Bool (and .def_869 .def_871))
(define-fun .def_875 () Bool (and .def_872 .def_874))
(define-fun .def_878 () Bool (and .def_875 .def_877))
(define-fun .def_881 () Bool (and .def_878 .def_880))
(define-fun .def_884 () Bool (and .def_881 .def_883))
(define-fun .def_886 () Bool (and .def_884 .def_885))
(define-fun .def_889 () Bool (and .def_886 .def_888))
(define-fun .def_891 () Bool (and .def_889 .def_890))
(define-fun .def_894 () Bool (and .def_891 .def_893))
(define-fun .def_901 () Bool (and .def_894 .def_900))
(define-fun .def_903 () Bool (and .def_901 .def_902))
(define-fun .def_905 () Bool (and .def_903 .def_904))
(define-fun .def_912 () Bool (and .def_905 .def_911))
(define-fun .def_914 () Bool (and .def_912 .def_913))
(define-fun .def_916 () Bool (and .def_914 .def_915))
(define-fun .def_919 () Bool (and .def_916 .def_918))
(define-fun .def_619 () Bool (= call_Sofar.flby call_Sofar.Sofar))
(define-fun .def_616 () Bool (= call__main_.call_controleur2.flby2 call__main_.call_controleur2.retard))
(define-fun .def_614 () Bool (= call__main_.call_controleur2.flby call__main_.call_controleur2.avance))
(define-fun .def_609 () Int (* (- 1) call__main_.call_controleur2.diff))
(define-fun .def_597 () Int (* (- 1) call__main_.nS))
(define-fun .def_610 () Int (+ .def_597 .def_609))
(define-fun .def_611 () Int (+ call__main_.nB1 .def_610))
(define-fun .def_612 () Bool (= .def_611 0))
(define-fun .def_604 () Bool (= call__main_.call_controleur.flby2 call__main_.call_controleur.retard))
(define-fun .def_602 () Bool (= call__main_.call_controleur.flby call__main_.call_controleur.avance))
(define-fun .def_596 () Int (* (- 1) call__main_.call_controleur.diff))
(define-fun .def_598 () Int (+ .def_597 .def_596))
(define-fun .def_599 () Int (+ call__main_.nB0 .def_598))
(define-fun .def_600 () Bool (= .def_599 0))
(define-fun .def_591 () Bool (= call__main_.call_hypothese2.flby2 call__main_.call_hypothese2.c))
(define-fun .def_588 () Bool (= call__main_.call_hypothese2.flby call__main_.call_hypothese2.ok))
(define-fun .def_586 () Bool (= call__main_.call_hypothese.flby2 call__main_.call_hypothese.c))
(define-fun .def_583 () Bool (= call__main_.call_hypothese.flby call__main_.call_hypothese.ok))
(define-fun .def_581 () Bool (= call__main_._H1_ call__main_.call_hypothese2.ok))
(define-fun .def_578 () Bool (= call__main_._H0_ call__main_.call_hypothese.ok))
(define-fun .def_575 () Bool (= call__main_.retard1 call__main_.call_controleur2.retard))
(define-fun .def_572 () Bool (= call__main_.retard0 call__main_.call_controleur.retard))
(define-fun .def_569 () Bool (= call__main_.avance1 call__main_.call_controleur2.avance))
(define-fun .def_566 () Bool (= call__main_.avance0 call__main_.call_controleur.avance))
(define-fun .def_563 () Bool (= call__main_.diff1 call__main_.call_controleur2.diff))
(define-fun .def_560 () Bool (= call__main_.diff0 call__main_.call_controleur.diff))
(define-fun .def_557 () Bool (= call__main_.flby3 call__main_.nS))
(define-fun .def_555 () Bool (= call__main_.flby2 call__main_.nB1))
(define-fun .def_553 () Bool (= call__main_.flby call__main_.nB0))
(define-fun .def_550 () Bool (and call__main_._H0_ call__main_._H1_))
(define-fun .def_551 () Bool (= call__main_.ast .def_550))
(define-fun .def_546 () Bool (= ast call__main_.ast))
(define-fun .def_543 () Bool (= retard1 call__main_.retard1))
(define-fun .def_539 () Bool (= retard0 call__main_.retard0))
(define-fun .def_535 () Bool (= avance1 call__main_.avance1))
(define-fun .def_531 () Bool (= avance0 call__main_.avance0))
(define-fun .def_527 () Bool (= diff1 call__main_.diff1))
(define-fun .def_523 () Bool (= diff0 call__main_.diff0))
(define-fun .def_519 () Bool (= nS call__main_.nS))
(define-fun .def_515 () Bool (= nB1 call__main_.nB1))
(define-fun .def_511 () Bool (= nB0 call__main_.nB0))
(define-fun .def_508 () Bool (= flby _OK_))
(define-fun .def_512 () Bool (and .def_508 .def_511))
(define-fun .def_516 () Bool (and .def_512 .def_515))
(define-fun .def_520 () Bool (and .def_516 .def_519))
(define-fun .def_524 () Bool (and .def_520 .def_523))
(define-fun .def_528 () Bool (and .def_524 .def_527))
(define-fun .def_532 () Bool (and .def_528 .def_531))
(define-fun .def_536 () Bool (and .def_532 .def_535))
(define-fun .def_540 () Bool (and .def_536 .def_539))
(define-fun .def_544 () Bool (and .def_540 .def_543))
(define-fun .def_547 () Bool (and .def_544 .def_546))
(define-fun .def_552 () Bool (and .def_547 .def_551))
(define-fun .def_554 () Bool (and .def_552 .def_553))
(define-fun .def_556 () Bool (and .def_554 .def_555))
(define-fun .def_558 () Bool (and .def_556 .def_557))
(define-fun .def_561 () Bool (and .def_558 .def_560))
(define-fun .def_564 () Bool (and .def_561 .def_563))
(define-fun .def_567 () Bool (and .def_564 .def_566))
(define-fun .def_570 () Bool (and .def_567 .def_569))
(define-fun .def_573 () Bool (and .def_570 .def_572))
(define-fun .def_576 () Bool (and .def_573 .def_575))
(define-fun .def_579 () Bool (and .def_576 .def_578))
(define-fun .def_582 () Bool (and .def_579 .def_581))
(define-fun .def_584 () Bool (and .def_582 .def_583))
(define-fun .def_587 () Bool (and .def_584 .def_586))
(define-fun .def_589 () Bool (and .def_587 .def_588))
(define-fun .def_592 () Bool (and .def_589 .def_591))
(define-fun .def_601 () Bool (and .def_592 .def_600))
(define-fun .def_603 () Bool (and .def_601 .def_602))
(define-fun .def_605 () Bool (and .def_603 .def_604))
(define-fun .def_613 () Bool (and .def_605 .def_612))
(define-fun .def_615 () Bool (and .def_613 .def_614))
(define-fun .def_617 () Bool (and .def_615 .def_616))
(define-fun .def_620 () Bool (and .def_617 .def_619))
(define-fun .def_920 () Bool (and .def_620 .def_919))
(define-fun .def_809 () Bool (and call_Sofar.Sofar ast.next))
(define-fun .def_811 () Bool (= .def_809 call_Sofar.flby.next))
(define-fun .def_806 () Bool (= call__main_.call_controleur2.ite2.next call__main_.call_controleur2.flby2.next))
(define-fun .def_803 () Bool (= call__main_.call_controleur2.ite.next call__main_.call_controleur2.flby.next))
(define-fun .def_796 () Bool (<= 0 call__main_.call_controleur2.diff.next))
(define-fun .def_797 () Bool (not .def_796))
(define-fun .def_798 () Bool (= call__main_.call_controleur2.ite2.next .def_797))
(define-fun .def_795 () Bool (not call__main_.call_controleur2.retard))
(define-fun .def_799 () Bool (or .def_795 .def_798))
(define-fun .def_790 () Bool (<= call__main_.call_controleur2.diff.next (- 10)))
(define-fun .def_792 () Bool (= .def_790 call__main_.call_controleur2.ite2.next))
(define-fun .def_793 () Bool (or call__main_.call_controleur2.retard .def_792))
(define-fun .def_786 () Bool (<= 10 call__main_.call_controleur2.diff.next))
(define-fun .def_787 () Bool (= call__main_.call_controleur2.ite.next .def_786))
(define-fun .def_788 () Bool (or call__main_.call_controleur2.avance .def_787))
(define-fun .def_781 () Bool (<= call__main_.call_controleur2.diff.next 0))
(define-fun .def_782 () Bool (not .def_781))
(define-fun .def_784 () Bool (= .def_782 call__main_.call_controleur2.ite.next))
(define-fun .def_779 () Bool (not call__main_.call_controleur2.avance))
(define-fun .def_785 () Bool (or .def_779 .def_784))
(define-fun .def_789 () Bool (and .def_785 .def_788))
(define-fun .def_794 () Bool (and .def_789 .def_793))
(define-fun .def_800 () Bool (and .def_794 .def_799))
(define-fun .def_777 () Bool (= call__main_.call_controleur.ite2.next call__main_.call_controleur.flby2.next))
(define-fun .def_774 () Bool (= call__main_.call_controleur.ite.next call__main_.call_controleur.flby.next))
(define-fun .def_767 () Bool (<= 0 call__main_.call_controleur.diff.next))
(define-fun .def_768 () Bool (not .def_767))
(define-fun .def_769 () Bool (= call__main_.call_controleur.ite2.next .def_768))
(define-fun .def_766 () Bool (not call__main_.call_controleur.retard))
(define-fun .def_770 () Bool (or .def_766 .def_769))
(define-fun .def_761 () Bool (<= call__main_.call_controleur.diff.next (- 10)))
(define-fun .def_763 () Bool (= .def_761 call__main_.call_controleur.ite2.next))
(define-fun .def_764 () Bool (or call__main_.call_controleur.retard .def_763))
(define-fun .def_757 () Bool (<= 10 call__main_.call_controleur.diff.next))
(define-fun .def_758 () Bool (= call__main_.call_controleur.ite.next .def_757))
(define-fun .def_759 () Bool (or call__main_.call_controleur.avance .def_758))
(define-fun .def_752 () Bool (<= call__main_.call_controleur.diff.next 0))
(define-fun .def_753 () Bool (not .def_752))
(define-fun .def_755 () Bool (= .def_753 call__main_.call_controleur.ite.next))
(define-fun .def_750 () Bool (not call__main_.call_controleur.avance))
(define-fun .def_756 () Bool (or .def_750 .def_755))
(define-fun .def_760 () Bool (and .def_756 .def_759))
(define-fun .def_765 () Bool (and .def_760 .def_764))
(define-fun .def_771 () Bool (and .def_765 .def_770))
(define-fun .def_748 () Bool (= call__main_.call_hypothese2.ite4.next call__main_.call_hypothese2.flby2.next))
(define-fun .def_743 () Bool (and call__main_.call_hypothese2.ite2.next call__main_.call_hypothese2.ite.next))
(define-fun .def_745 () Bool (= .def_743 call__main_.call_hypothese2.flby.next))
(define-fun .def_631 () Bool (<= 9 call__main_.call_hypothese2.c))
(define-fun .def_741 () Bool (or call__main_.call_hypothese2.ite2.next .def_631))
(define-fun .def_739 () Bool (= call__main_.call_hypothese.ite4.next call__main_.call_hypothese.flby2.next))
(define-fun .def_734 () Bool (and call__main_.call_hypothese.ite2.next call__main_.call_hypothese.ite.next))
(define-fun .def_736 () Bool (= .def_734 call__main_.call_hypothese.flby.next))
(define-fun .def_656 () Bool (<= 9 call__main_.call_hypothese.c))
(define-fun .def_732 () Bool (or call__main_.call_hypothese.ite2.next .def_656))
(define-fun .def_730 () Bool (= call__main_.ite3.next call__main_.flby3.next))
(define-fun .def_727 () Bool (= call__main_.ite2.next call__main_.flby2.next))
(define-fun .def_724 () Bool (= call__main_.ite.next call__main_.flby.next))
(define-fun .def_721 () Bool (or call__main_.retard1 call__main_.call_hypothese2.ite.next))
(define-fun .def_719 () Bool (or call__main_.retard0 call__main_.call_hypothese.ite.next))
(define-fun .def_712 () Bool (and call__main_.avance1 call__main_.avance1.next))
(define-fun .def_715 () Bool (not .def_712))
(define-fun .def_714 () Bool (= call__main_.call_hypothese2.ite3.next call__main_.call_hypothese2.ite4.next))
(define-fun .def_716 () Bool (or .def_714 .def_715))
(define-fun .def_710 () Bool (= call__main_.call_hypothese2.ite4.next 0))
(define-fun .def_713 () Bool (or .def_710 .def_712))
(define-fun .def_717 () Bool (and .def_713 .def_716))
(define-fun .def_702 () Bool (and call__main_.avance0 call__main_.avance0.next))
(define-fun .def_705 () Bool (not .def_702))
(define-fun .def_704 () Bool (= call__main_.call_hypothese.ite3.next call__main_.call_hypothese.ite4.next))
(define-fun .def_706 () Bool (or .def_704 .def_705))
(define-fun .def_700 () Bool (= call__main_.call_hypothese.ite4.next 0))
(define-fun .def_703 () Bool (or .def_700 .def_702))
(define-fun .def_707 () Bool (and .def_703 .def_706))
(define-fun .def_693 () Int (* (- 1) nB1))
(define-fun .def_694 () Int (+ nB0 .def_693))
(define-fun .def_695 () Bool (<= .def_694 40))
(define-fun .def_697 () Bool (= .def_695 flby.next))
(define-fun .def_687 () Bool (= call__main_.nS call__main_.ite3.next))
(define-fun .def_688 () Bool (or param__S_.next .def_687))
(define-fun .def_682 () Int (* (- 1) call__main_.ite3.next))
(define-fun .def_683 () Int (+ call__main_.nS .def_682))
(define-fun .def_684 () Bool (= .def_683 (- 1)))
(define-fun .def_671 () Bool (not param__S_.next))
(define-fun .def_685 () Bool (or .def_671 .def_684))
(define-fun .def_678 () Bool (not call__main_.retard0))
(define-fun .def_677 () Bool (= .def_671 call__main_.call_hypothese.ite.next))
(define-fun .def_679 () Bool (or .def_677 .def_678))
(define-fun .def_674 () Bool (not call__main_.retard1))
(define-fun .def_673 () Bool (= .def_671 call__main_.call_hypothese2.ite.next))
(define-fun .def_675 () Bool (or .def_673 .def_674))
(define-fun .def_680 () Bool (and .def_675 .def_679))
(define-fun .def_686 () Bool (and .def_680 .def_685))
(define-fun .def_689 () Bool (and .def_686 .def_688))
(define-fun .def_664 () Bool (= call__main_.nB0 call__main_.ite.next))
(define-fun .def_667 () Bool (or param__B0_.next .def_664))
(define-fun .def_652 () Bool (not param__B0_.next))
(define-fun .def_665 () Bool (or .def_652 .def_664))
(define-fun .def_660 () Bool (= call__main_.call_hypothese.c call__main_.call_hypothese.ite3.next))
(define-fun .def_661 () Bool (or param__B0_.next .def_660))
(define-fun .def_657 () Bool (not .def_656))
(define-fun .def_655 () Bool (= .def_652 call__main_.call_hypothese.ite2.next))
(define-fun .def_658 () Bool (or .def_655 .def_657))
(define-fun .def_648 () Int (* (- 1) call__main_.call_hypothese.ite3.next))
(define-fun .def_649 () Int (+ call__main_.call_hypothese.c .def_648))
(define-fun .def_650 () Bool (= .def_649 1))
(define-fun .def_653 () Bool (or .def_650 .def_652))
(define-fun .def_659 () Bool (and .def_653 .def_658))
(define-fun .def_662 () Bool (and .def_659 .def_661))
(define-fun .def_666 () Bool (and .def_662 .def_665))
(define-fun .def_668 () Bool (and .def_666 .def_667))
(define-fun .def_644 () Bool (= call__main_.nB1 call__main_.ite2.next))
(define-fun .def_645 () Bool (or param__B1_.next .def_644))
(define-fun .def_639 () Int (* (- 1) call__main_.ite2.next))
(define-fun .def_640 () Int (+ call__main_.nB1 .def_639))
(define-fun .def_641 () Bool (= .def_640 (- 1)))
(define-fun .def_627 () Bool (not param__B1_.next))
(define-fun .def_642 () Bool (or .def_627 .def_641))
(define-fun .def_635 () Bool (= call__main_.call_hypothese2.c call__main_.call_hypothese2.ite3.next))
(define-fun .def_636 () Bool (or param__B1_.next .def_635))
(define-fun .def_632 () Bool (not .def_631))
(define-fun .def_630 () Bool (= .def_627 call__main_.call_hypothese2.ite2.next))
(define-fun .def_633 () Bool (or .def_630 .def_632))
(define-fun .def_623 () Int (* (- 1) call__main_.call_hypothese2.ite3.next))
(define-fun .def_624 () Int (+ call__main_.call_hypothese2.c .def_623))
(define-fun .def_625 () Bool (= .def_624 1))
(define-fun .def_628 () Bool (or .def_625 .def_627))
(define-fun .def_634 () Bool (and .def_628 .def_633))
(define-fun .def_637 () Bool (and .def_634 .def_636))
(define-fun .def_643 () Bool (and .def_637 .def_642))
(define-fun .def_646 () Bool (and .def_643 .def_645))
(define-fun .def_669 () Bool (and .def_646 .def_668))
(define-fun .def_690 () Bool (and .def_669 .def_689))
(define-fun .def_698 () Bool (and .def_690 .def_697))
(define-fun .def_708 () Bool (and .def_698 .def_707))
(define-fun .def_718 () Bool (and .def_708 .def_717))
(define-fun .def_720 () Bool (and .def_718 .def_719))
(define-fun .def_722 () Bool (and .def_720 .def_721))
(define-fun .def_725 () Bool (and .def_722 .def_724))
(define-fun .def_728 () Bool (and .def_725 .def_727))
(define-fun .def_731 () Bool (and .def_728 .def_730))
(define-fun .def_733 () Bool (and .def_731 .def_732))
(define-fun .def_737 () Bool (and .def_733 .def_736))
(define-fun .def_740 () Bool (and .def_737 .def_739))
(define-fun .def_742 () Bool (and .def_740 .def_741))
(define-fun .def_746 () Bool (and .def_742 .def_745))
(define-fun .def_749 () Bool (and .def_746 .def_748))
(define-fun .def_772 () Bool (and .def_749 .def_771))
(define-fun .def_775 () Bool (and .def_772 .def_774))
(define-fun .def_778 () Bool (and .def_775 .def_777))
(define-fun .def_801 () Bool (and .def_778 .def_800))
(define-fun .def_804 () Bool (and .def_801 .def_803))
(define-fun .def_807 () Bool (and .def_804 .def_806))
(define-fun .def_812 () Bool (and .def_807 .def_811))
(define-fun .def_921 () Bool (and .def_812 .def_920))
(assert .def_921)
